38 10
8 546
4 341
1 720
8 502
1 613
1 321
4 740
1 410
7 834
6 840
2 49
2 974
7 884
6 876
5 262
2 501
1 427
2 421
5 853
6 465
7 321
4 747
6 262
5 515
6 874
6 990
6 108
9 581
9 520
5 355
1 586
5 381
4 391
8 339
8 86
4 550
5 546
7 71
